c Generated map
c Size: 10 * 10, weights in range: 1 to 10, walls: True, with ratio 0.05
c dim 4 of 6
c
p sp 100 162
c graph contains 100 nodes and 162 arcs
c
a 1 11 10
a 11 1 10
a 1 2 9
a 2 1 9
a 2 12 8
a 12 2 8
a 4 14 1
a 14 4 1
a 4 5 4
a 5 4 4
a 5 6 4
a 6 5 4
a 6 16 5
a 16 6 5
a 6 7 4
a 7 6 4
a 7 17 7
a 17 7 7
a 7 8 5
a 8 7 5
a 8 18 8
a 18 8 8
a 8 9 4
a 9 8 4
a 9 10 2
a 10 9 2
a 10 20 9
a 20 10 9
a 11 21 2
a 21 11 2
a 11 12 3
a 12 11 3
a 12 22 1
a 22 12 1
a 12 13 6
a 13 12 6
a 13 23 2
a 23 13 2
a 13 14 8
a 14 13 8
a 14 24 8
a 24 14 8
a 16 26 5
a 26 16 5
a 16 17 9
a 17 16 9
a 17 27 7
a 27 17 7
a 17 18 9
a 18 17 9
a 18 28 2
a 28 18 2
a 20 30 10
a 30 20 10
a 21 31 2
a 31 21 2
a 21 22 8
a 22 21 8
a 22 32 9
a 32 22 9
a 22 23 10
a 23 22 10
a 23 33 10
a 33 23 10
a 23 24 1
a 24 23 1
a 24 34 1
a 34 24 1
a 24 25 10
a 25 24 10
a 25 35 4
a 35 25 4
a 25 26 9
a 26 25 9
a 26 36 6
a 36 26 6
a 26 27 7
a 27 26 7
a 27 37 9
a 37 27 9
a 27 28 4
a 28 27 4
a 28 38 4
a 38 28 4
a 28 29 7
a 29 28 7
a 29 39 8
a 39 29 8
a 29 30 5
a 30 29 5
a 31 41 7
a 41 31 7
a 31 32 5
a 32 31 5
a 32 42 1
a 42 32 1
a 32 33 9
a 33 32 9
a 33 43 2
a 43 33 2
a 33 34 2
a 34 33 2
a 34 44 8
a 44 34 8
a 34 35 2
a 35 34 2
a 35 45 5
a 45 35 5
a 35 36 9
a 36 35 9
a 36 46 10
a 46 36 10
a 36 37 8
a 37 36 8
a 37 47 5
a 47 37 5
a 37 38 5
a 38 37 5
a 38 48 9
a 48 38 9
a 38 39 2
a 39 38 2
a 39 49 10
a 49 39 10
a 41 51 5
a 51 41 5
a 41 42 7
a 42 41 7
a 42 52 1
a 52 42 1
a 42 43 10
a 43 42 10
a 43 53 9
a 53 43 9
a 43 44 1
a 44 43 1
a 44 54 6
a 54 44 6
a 44 45 5
a 45 44 5
a 45 55 2
a 55 45 2
a 45 46 4
a 46 45 4
a 46 56 3
a 56 46 3
a 46 47 4
a 47 46 4
a 47 57 8
a 57 47 8
a 47 48 2
a 48 47 2
a 48 58 7
a 58 48 7
a 48 49 2
a 49 48 2
a 49 59 3
a 59 49 3
a 49 50 7
a 50 49 7
a 50 60 8
a 60 50 8
a 51 61 8
a 61 51 8
a 51 52 3
a 52 51 3
a 52 62 8
a 62 52 8
a 52 53 1
a 53 52 1
a 53 63 2
a 63 53 2
a 53 54 8
a 54 53 8
a 54 64 4
a 64 54 4
a 54 55 2
a 55 54 2
a 55 65 2
a 65 55 2
a 55 56 8
a 56 55 8
a 56 66 7
a 66 56 7
a 56 57 4
a 57 56 4
a 57 67 1
a 67 57 1
a 57 58 7
a 58 57 7
a 58 68 8
a 68 58 8
a 58 59 2
a 59 58 2
a 59 69 1
a 69 59 1
a 59 60 7
a 60 59 7
a 60 70 3
a 70 60 3
a 61 71 9
a 71 61 9
a 61 62 10
a 62 61 10
a 62 72 10
a 72 62 10
a 62 63 8
a 63 62 8
a 63 73 7
a 73 63 7
a 63 64 4
a 64 63 4
a 64 74 7
a 74 64 7
a 64 65 1
a 65 64 1
a 65 66 7
a 66 65 7
a 66 76 10
a 76 66 10
a 66 67 1
a 67 66 1
a 67 77 2
a 77 67 2
a 67 68 2
a 68 67 2
a 68 78 6
a 78 68 6
a 68 69 9
a 69 68 9
a 69 79 10
a 79 69 10
a 69 70 9
a 70 69 9
a 70 80 7
a 80 70 7
a 71 81 1
a 81 71 1
a 71 72 9
a 72 71 9
a 72 82 8
a 82 72 8
a 72 73 6
a 73 72 6
a 73 83 3
a 83 73 3
a 73 74 9
a 74 73 9
a 74 84 9
a 84 74 9
a 76 86 9
a 86 76 9
a 76 77 2
a 77 76 2
a 77 87 5
a 87 77 5
a 77 78 1
a 78 77 1
a 78 88 5
a 88 78 5
a 78 79 3
a 79 78 3
a 79 89 3
a 89 79 3
a 79 80 4
a 80 79 4
a 80 90 6
a 90 80 6
a 81 91 1
a 91 81 1
a 81 82 10
a 82 81 10
a 82 92 2
a 92 82 2
a 82 83 7
a 83 82 7
a 83 93 3
a 93 83 3
a 83 84 3
a 84 83 3
a 84 94 6
a 94 84 6
a 84 85 3
a 85 84 3
a 85 95 1
a 95 85 1
a 85 86 5
a 86 85 5
a 86 96 10
a 96 86 10
a 86 87 4
a 87 86 4
a 87 97 6
a 97 87 6
a 87 88 3
a 88 87 3
a 88 98 1
a 98 88 1
a 88 89 6
a 89 88 6
a 89 99 7
a 99 89 7
a 89 90 4
a 90 89 4
a 90 100 3
a 100 90 3
a 91 92 8
a 92 91 8
a 92 93 9
a 93 92 9
a 93 94 4
a 94 93 4
a 94 95 9
a 95 94 9
a 95 96 3
a 96 95 3
a 96 97 3
a 97 96 3
a 97 98 10
a 98 97 10
a 98 99 10
a 99 98 10
a 99 100 3
a 100 99 3
